% demand
num_movements = 17;
loading_factor = [1100, 1600, 1800, 1850, 1500, 1000, 1600, 1400, 1650, 1450, 1050, 1900, 1200, 2000, 1700, 1100, 1150];
pickup_time = [0, 1, 1, 1, 2, 3, 6, 7, 7, 8, 8, 8, 9, 10, 13, 13, 13];
delivery_time = [4, 5, 8, 2, 4, 5, 7, 11, 8, 10, 10, 12, 12, 12, 14, 14, 14];

% transporter definition
total_capacity = 7000;
num_decks = 3;
capacity = [3000, 1000, 3000];

% ways out of decks
num_ways_out = 1;
paths_out = array3d(decks, ways_out, decks, [
% ways out of deck d1
2, 3, 0, 

% ways out of deck d2
3, 0, 0, 

% ways out of deck d3
0, 0, 0,	

]);

